34 17 
67 93 
64 87 
45 43 
81 94 
51 83 
14 80 
78 29 
19 29 
49 90 
89 92 
44 60 
52 5 
20 95 
93 31 
47 80 
49 15 
73 13 
2 19 
8 35 
65 59 
18 80 
39 49 
61 11 
78 10 
1 20 
3 97 
32 7 
3 52 
54 96 
36 2 
28 37 
69 54 
50 23 
73 10 
11 90 
70 29 
70 61 
30 31 
24 61 
94 25 
33 97 
75 65 
56 78 
69 11 
26 5 
65 55 
94 34 
61 44 
57 86 
